(set-logic QF_UF)
(declare-sort I 0)
(declare-fun a () I)
(declare-fun b () I)
(declare-fun c () I)
(declare-fun f (I) I)
(assert (= (f a) (f b)))
(assert (distinct (f a) (f c)))
(assert (= a b))
(assert (distinct a c))
(check-sat)
